AES/1_3_4/ssaes_r1-20_c3_rw1_e4_f0_k1-20_aes_1base_box_aes_mc_bidirectional/ExperimentMinisat_r9_k15cnf_2011-10-29-153226/Result
WARNING: for repeatability, setting FPU to use double precision
============================[ Problem Statistics ]=============================
|                                                                             |
|  Number of variables:           540                                         |
|  Number of clauses:            2316                                         |
|  Parse time:                   0.00 s                                       |
|  Eliminated clauses:           0.01 Mb                                      |
|  Simplification time:          0.00 s                                       |
|                                                                             |
=============================[ Search Statistics ]==============================
| Conflicts  |          ORIGINAL         |          LEARNT          | Progress |
|            |    Vars  Clauses Literals |    Limit  Clauses Lit/Cl |          |
================================================================================
|        100 |     360     1812     5952 |      664      100     13 | 11.112 % |
|        250 |     360     1812     5952 |      730      250     14 | 11.111 % |
|        475 |     360     1812     5952 |      803      475     13 | 11.111 % |
|        812 |     360     1812     5952 |      884      812     13 | 11.111 % |
|       1318 |     360     1812     5952 |      972      834     11 | 11.111 % |
|       2077 |     360     1812     5952 |     1070      543      8 | 11.111 % |
|       3216 |     360     1812     5952 |     1177     1115      8 | 11.111 % |
===============================================================================
restarts              : 17
conflicts             : 3345           (29606 /sec)
decisions             : 3846           (0.00 % random) (34041 /sec)
propagations          : 570186         (5046698 /sec)
conflict literals     : 38540          (46.19 % deleted)
Memory used           : 8.00 MB
CPU time              : 0.112982 s

SATISFIABLE
